c description: Random 3-CNF over 18 variables and 77 clauses
c generator: CNFgen (0.9.2)
c copyright: (C) 2012-2022 Massimo Lauria <massimo.lauria@uniroma1.it>
c url: https://massimolauria.net/cnfgen
c command line: cnfgen --output CNF_4.28/18_bit_77_982.cnf randkcnf 3 18 77
c
p cnf 18 77
-7 -10 16 0
2 4 -7 0
-10 17 -18 0
1 -4 9 0
-3 -16 -18 0
-1 3 4 0
-1 5 -8 0
2 -6 14 0
15 16 17 0
1 -4 12 0
10 14 15 0
-6 9 -18 0
14 16 18 0
-5 -14 18 0
3 7 14 0
4 9 -18 0
5 6 9 0
-11 -14 -15 0
6 7 11 0
1 9 15 0
-11 13 14 0
-10 13 14 0
6 -14 16 0
-5 -6 17 0
-3 -6 17 0
-2 -6 -9 0
5 6 -9 0
-1 -2 5 0
6 9 -17 0
2 -3 -17 0
-7 16 -17 0
5 -7 17 0
3 -7 13 0
4 6 15 0
-2 -3 -4 0
2 10 -16 0
-2 -7 15 0
-1 -2 17 0
-5 13 16 0
3 10 16 0
2 -4 12 0
-1 15 -18 0
14 15 17 0
3 10 13 0
-10 12 -16 0
-12 -16 18 0
5 -10 -15 0
-3 -5 14 0
-1 2 -9 0
-4 5 -11 0
-7 10 -11 0
4 -5 -12 0
2 -3 -16 0
2 -5 9 0
-10 15 -16 0
-3 10 18 0
-3 -5 -8 0
1 -5 11 0
-3 -11 13 0
2 -3 15 0
-1 -2 -9 0
10 15 18 0
-6 -14 17 0
2 -5 -15 0
3 6 10 0
-2 -10 -15 0
-2 -5 7 0
4 7 -18 0
7 8 -12 0
11 13 -15 0
-7 -10 -14 0
3 15 18 0
13 -17 -18 0
-4 -14 -17 0
7 12 14 0
-1 -4 7 0
-1 15 -17 0
